NAME : single
TYPE : ATSP
DIMENSION : 11
EDGE_WEIGHT_TYPE : EXPLICIT
EDGE_WEIGHT_FORMAT : FULL_MATRIX
EDGE_WEIGHT_SECTION
0 50429 50448 50454 50410 50417 645 488 594 155 55 
0 0 59 180 318 364 334 536 423 558 563 
0 59 0 121 259 309 396 539 424 561 573 
0 180 121 0 264 136 421 50000 50000 50000 50000 
0 318 259 264 0 284 50000 50000 50000 50000 50000 
0 364 309 136 284 0 50000 50000 50000 50000 50000 
0 334 396 421 50000 50000 0 328 244 324 330 
0 536 539 50000 50000 50000 328 0 200 162 223 
0 423 424 50000 50000 50000 244 200 0 276 196 
0 558 561 50000 50000 50000 324 162 276 0 147 
0 563 573 50000 50000 50000 330 223 196 147 0 
EOF